proyfinal/src/viki/013/andrea/andrea-localstore/experimentInOfficeAgust.take6/worker_4/5158a846-48bc-450b-9a64-8121cc8f0453.als.cnf.out
Reading from standard input... Use '--help' for help.
============================[ Problem Statistics ]=============================
|                                                                             |
|  Number of variables:         87638                                         |
|  Number of clauses:          161767                                         |
|  Parse time:                   0.03 s                                       |
|                                                                             |
============================[ Search Statistics ]==============================
| Conflicts |          ORIGINAL         |          LEARNT          | Progress |
|           |    Vars  Clauses Literals |    Limit  Clauses Lit/Cl |          |
===============================================================================
|       100 |   63609   109655   274279 |    40206      100     36 | 27.418 % |
|       250 |   63609   109655   274279 |    44227      250     33 | 27.419 % |
|       475 |   63601   109639   274235 |    48650      465     33 | 27.428 % |
|       812 |   44155    51486   131295 |    53515      762     48 | 49.617 % |
|      1318 |   44155    51486   131295 |    58866     1268     46 | 49.617 % |
|      2077 |   44120    51345   130952 |    64753     1986     37 | 49.657 % |
|      3216 |   44120    51345   130952 |    71228     3125     34 | 49.657 % |
===============================================================================
restarts              : 18
conflicts             : 3556           (11097 /sec)
decisions             : 13829          (0.00 % random) (43157 /sec)
propagations          : 4430753        (13827307 /sec)
conflict literals     : 114287         (30.65 % deleted)
Memory used           : 22.77 MB
CPU time              : 0.320435 s

UNSATISFIABLE
